sat
(model
; cardinality of BoundSet is 2
(declare-sort BoundSet 0)
; rep: @uc_BoundSet_0
; rep: @uc_BoundSet_1
; cardinality of UnboundSet is 1
(declare-sort UnboundSet 0)
; rep: @uc_UnboundSet_0
(define-fun c () UnboundSet @uc_UnboundSet_0)
(define-fun IsRubbing ((BOUND_VARIABLE_394 BoundSet)) Bool (= @uc_BoundSet_0 BOUND_VARIABLE_394))
(define-fun IsInYellowTie ((BOUND_VARIABLE_402 UnboundSet)) Bool false)
)
